results_rootrelaxation/bin006_060_014.srr.sol
solution status: optimal solution found
objective value:                                    5
_var5_                                            0.5 	(obj:2)
_var7_                                           0.25 	(obj:0)
_var12_                                          0.25 	(obj:3)
_var21_                                          0.25 	(obj:1)
_var27_                                          0.25 	(obj:1)
_var29_                                          0.75 	(obj:0)
_var38_                                           0.5 	(obj:2)
_var40_                                          0.75 	(obj:0)
_var48_                                           0.5 	(obj:1)
_var49_                                          0.25 	(obj:0)
_var51_                                          0.25 	(obj:1)
_var52_                                           0.5 	(obj:2)
